Route #1: 1 27 20 8 21 26 14 17 45 1
Route #2: 1 12 34 57 16 13 11 1
Route #3: 1 24 40 53 7 38 36 52 18 1
Route #4: 1 32 44 39 43 10 42 1
Route #5: 1 48 5 19 2 47 58 15 41 59 56 63 1
Route #6: 1 23 54 29 33 51 22 1
Route #7: 1 55 30 31 3 6 46 28 1
Route #8: 1 35 61 9 25 60 50 1
Route #9: 1 49 37 4 62 1
cost 1908
